     Program PWSCF v.6.7MaX starts on 31Aug2025 at 16:50:53

     R & G space division:  proc/nbgrp/npool/nimage =      10
     Waiting for input...
     Reading input from standard input

     Current dimensions of program PWSCF are:
     Max number of different atomic species (ntypx) = 10
     Max number of k-points (npk) =  40000
     Max angular momentum in pseudopotentials (lmaxx) =  3
     file C.pbe-n-kjpaw_psl.1.0.0.UPF: wavefunction(s)  2S 2P renormalized
     file Fe.pbe-spn-kjpaw_psl.0.2.1.UPF: wavefunction(s)  3D renormalized
     file O.pbe-n-kjpaw_psl.0.1.UPF: wavefunction(s)  2P renormalized

     Message from routine setup:
     using ibrav=0 with symmetry is DISCOURAGED, use correct ibrav instead

     bravais-lattice index     =            0
     lattice parameter (alat)  =      12.4770  a.u.
     unit-cell volume          =    4157.6892 (a.u.)^3
     number of atoms/cell      =           52
     number of atomic types    =            6
     number of electrons       =       364.00
     number of Kohn-Sham states=          218
     kinetic-energy cutoff     =      40.0000  Ry
     charge density cutoff     =     320.0000  Ry
     scf convergence threshold =      1.0E-06
     mixing beta               =       0.3000
     number of iterations used =            8  plain     mixing
     energy convergence thresh.=      1.0E-04
     force convergence thresh. =      1.0E-03
     Exchange-correlation= PBE
                           (   1   4   3   4   0   0   0)
     nstep                     =           50

     celldm(1)=  12.477013  celldm(2)=   0.000000  celldm(3)=   0.000000
     celldm(4)=   0.000000  celldm(5)=   0.000000  celldm(6)=   0.000000

     crystal axes: (cart. coord. in units of alat)
               a(1) = (   0.999994   0.000000  -0.003391 )
               a(2) = (  -0.013440   1.361094  -0.023063 )
               a(3) = (   0.000000   0.000000   1.572658 )

     reciprocal axes: (cart. coord. in units 2 pi/alat)
               b(1) = (  1.000006  0.009874 -0.000000 )
               b(2) = ( -0.000000  0.734703  0.000000 )
               b(3) = (  0.002156  0.010796  0.635866 )

     PseudoPot. # 1 for C  read from file:
     ../pseudopotentials/C.pbe-n-kjpaw_psl.1.0.0.UPF
     MD5 check sum: 5d2aebdfa2cae82b50a7e79e9516da0f
     Pseudo is Projector augmented-wave + core cor, Zval =  4.0
     Generated using "atomic" code by A. Dal Corso  v.5.1
     Shape of augmentation charge: PSQ
     Using radial grid of 1073 points,  4 beta functions with:
                l(1) =   0
                l(2) =   0
                l(3) =   1
                l(4) =   1
     Q(r) pseudized with 0 coefficients

     PseudoPot. # 2 for Fe read from file:
     ../pseudopotentials/Fe.pbe-spn-kjpaw_psl.0.2.1.UPF
     MD5 check sum: e86618425769142926afa95317d90200
     Pseudo is Projector augmented-wave + core cor, Zval = 16.0
     Generated using "atomic" code by A. Dal Corso  v.5.0.99 svn rev. 10869
     Shape of augmentation charge: PSQ
     Using radial grid of 1191 points,  6 beta functions with:
                l(1) =   0
                l(2) =   0
                l(3) =   1
                l(4) =   1
                l(5) =   2
                l(6) =   2
     Q(r) pseudized with 0 coefficients

     PseudoPot. # 3 for Li read from file:
     ../pseudopotentials/Li_pbe_v1.5.uspp.F.UPF
     MD5 check sum: e912e257baa3777c20ea3d68f190483c
     Pseudo is Ultrasoft, Zval =  3.0
     Generated by new atomic code, or converted to UPF format
     Using radial grid of  751 points,  5 beta functions with:
                l(1) =   0
                l(2) =   0
                l(3) =   0
                l(4) =   1
                l(5) =   1
     Q(r) pseudized with 10 coefficients,  rinner =    1.150   1.150   1.150

     PseudoPot. # 4 for Na read from file:
     ../pseudopotentials/na_pbe_v1.5.uspp.F.UPF
     MD5 check sum: 44600605ef58000f06b90626533354dc
     Pseudo is Ultrasoft, Zval =  9.0
     Generated by new atomic code, or converted to UPF format
     Using radial grid of  819 points,  5 beta functions with:
                l(1) =   0
                l(2) =   0
                l(3) =   1
                l(4) =   1
                l(5) =   2
     Q(r) pseudized with  8 coefficients,  rinner =    1.250   1.250   1.250
                                                       1.250   1.250

     PseudoPot. # 5 for O  read from file:
     ../pseudopotentials/O.pbe-n-kjpaw_psl.0.1.UPF
     MD5 check sum: 0234752ac141de4415c5fc33072bef88
     Pseudo is Projector augmented-wave + core cor, Zval =  6.0
     Generated using "atomic" code by A. Dal Corso  v.5.0.99 svn rev. 10869
     Shape of augmentation charge: BESSEL
     Using radial grid of 1095 points,  4 beta functions with:
                l(1) =   0
                l(2) =   0
                l(3) =   1
                l(4) =   1
     Q(r) pseudized with 0 coefficients

     PseudoPot. # 6 for P  read from file:
     ../pseudopotentials/P.pbe-n-rrkjus_psl.1.0.0.UPF
     MD5 check sum: 8b930f418f0a4573dca56cd030ffe088
     Pseudo is Ultrasoft + core correction, Zval =  5.0
     Generated using "atomic" code by A. Dal Corso  v.5.1
     Using radial grid of 1147 points,  6 beta functions with:
                l(1) =   0
                l(2) =   0
                l(3) =   1
                l(4) =   1
                l(5) =   2
                l(6) =   2
     Q(r) pseudized with 0 coefficients

     atomic species   valence    mass     pseudopotential
        C              4.00    12.01000     C ( 1.00)
        Fe            16.00    55.84500     Fe( 1.00)
        Li             3.00     6.94100     Li( 1.00)
        Na             9.00    22.99000     Na( 1.00)
        O              6.00    16.00000     O ( 1.00)
        P              5.00    30.97000     P ( 1.00)

      2 Sym. Ops., with inversion, found

   Cartesian axes

     site n.     atom                  positions (alat units)
         1           Na  tau(   1) = (   0.2337587   1.2488871   0.9679357  )
         2           Na  tau(   2) = (   0.2362844   1.2479125   0.1840066  )
         3           Na  tau(   3) = (   0.4887081   1.0071704   0.5698546  )
         4           Na  tau(   4) = (  -0.0088737   1.0065184   1.3584860  )
         5           Na  tau(   5) = (   0.4893469   1.0057629   1.3561505  )
         6           Na  tau(   6) = (   0.4978464   0.3539240   0.9763499  )
         7           Na  tau(   7) = (   0.4972075   0.3553314   0.1900540  )
         8           Na  tau(   8) = (   0.9954281   0.3545760   0.1877185  )
         9           Na  tau(   9) = (   0.7527957   0.1122072   0.5782688  )
        10           Na  tau(  10) = (   0.7502702   0.1131819   1.3621980  )
        11           Li  tau(  11) = (  -0.0058020   0.9959264   0.5690646  )
        12           Li  tau(  12) = (   0.9923575   0.3651680   0.9771399  )
        13           Fe  tau(  13) = (   0.7414249   0.8771055   0.9909485  )
        14           Fe  tau(  14) = (   0.7432659   0.8778215   0.2086804  )
        15           Fe  tau(  15) = (   0.2451295   0.4839888   0.5552561  )
        16           Fe  tau(  16) = (   0.2432887   0.4832729   1.3375242  )
        17           P   tau(  17) = (   0.2354558   0.7965900   0.9265657  )
        18           P   tau(  18) = (   0.2419978   0.7982110   0.1451045  )
        19           P   tau(  19) = (   0.7510986   0.5645044   0.6196388  )
        20           P   tau(  20) = (   0.7445566   0.5628833   1.4011000  )
        21           C   tau(  21) = (   0.7444504   1.2830479   0.9435706  )
        22           C   tau(  22) = (   0.7380775   1.2790053   0.1591120  )
        23           C   tau(  23) = (   0.2421040   0.0780465   0.6026339  )
        24           C   tau(  24) = (   0.2484770   0.0820890   1.3870925  )
        25           O   tau(  25) = (   0.2225802   1.2423688   0.5937538  )
        26           O   tau(  26) = (   0.2392651   1.2476281   1.3796683  )
        27           O   tau(  27) = (   0.7383628   1.1964279   1.1205454  )
        28           O   tau(  28) = (   0.7400921   1.1935708   0.3371557  )
        29           O   tau(  29) = (   0.7435673   1.1701518   0.7818364  )
        30           O   tau(  30) = (   0.7403214   1.1660931  -0.0020665  )
        31           O   tau(  31) = (   0.0522180   0.9283357   0.9961682  )
        32           O   tau(  32) = (   0.4277768   0.9194287   0.9904473  )
        33           O   tau(  33) = (   0.0551643   0.9275000   0.2125229  )
        34           O   tau(  34) = (   0.4309230   0.9271039   0.2061491  )
        35           O   tau(  35) = (   0.2307941   0.7781282   0.6908012  )
        36           O   tau(  36) = (   0.7562291   0.7781430   0.5224794  )
        37           O   tau(  37) = (   0.2395906   0.7718003   1.4831243  )
        38           O   tau(  38) = (   0.7423378   0.7720999   1.2981997  )
        39           O   tau(  39) = (   0.2303254   0.5829512   1.0237252  )
        40           O   tau(  40) = (   0.7557603   0.5829662   0.8554033  )
        41           O   tau(  41) = (   0.2442167   0.5889945   0.2480049  )
        42           O   tau(  42) = (   0.7469639   0.5892939   0.0630803  )
        43           O   tau(  43) = (   0.5587777   0.4416657   0.5557572  )
        44           O   tau(  44) = (   0.9343364   0.4327586   0.5500365  )
        45           O   tau(  45) = (   0.5556315   0.4339904   1.3400555  )
        46           O   tau(  46) = (   0.9313902   0.4335942   1.3336816  )
        47           O   tau(  47) = (   0.2429871   0.1909424   0.7643682  )
        48           O   tau(  48) = (   0.2462330   0.1950013   1.5482710  )
        49           O   tau(  49) = (   0.2481916   0.1646665   0.4256591  )
        50           O   tau(  50) = (   0.2464625   0.1675234   1.2090488  )
        51           O   tau(  51) = (   0.7639743   0.1187255   0.9524507  )
        52           O   tau(  52) = (   0.7472893   0.1134663   0.1665362  )

     number of k points=     1  Gaussian smearing, width (Ry)=  0.0200
                       cart. coord. in units 2pi/alat
        k(    1) = (   0.0000000   0.0000000   0.0000000), wk =   2.0000000

     Check: negative core charge=   -0.000061

     Initial potential from superposition of free atoms

     starting charge  363.03301, renormalised to  364.00000
     Starting wfcs are  256 randomized atomic wfcs
     Checking if some PAW data can be deallocated...

     Self-consistent Calculation

     iteration #  1     ecut=    40.00 Ry     beta= 0.30
     Davidson diagonalization with overlap
     ethr =  1.00E-02,  avg # of iterations =  3.0

     total energy              =   -3594.02150792 Ry
     estimated scf accuracy    <      14.44410923 Ry

[...]

     End of self-consistent calculation

          k = 0.0000 0.0000 0.0000 ( 17781 PWs)   bands (ev):

   -80.3612 -80.3612 -80.3484 -80.3484 -46.4147 -46.4127 -46.4040 -46.4009
   -46.3990 -46.3974 -46.3736 -46.3734 -46.2876 -46.2860 -46.2852 -46.2820
   -45.6646 -45.6645 -45.6335 -45.6334 -45.0229 -45.0229 -44.9837 -44.9837
   -44.9452 -44.9452 -39.8305 -39.8305 -17.8488 -17.8433 -17.7577 -17.7404
[...]
     NEW-OLD atomic charge density approx. for the potential

[...]

     iteration #  1     ecut=    40.00 Ry     beta= 0.30
     Davidson diagonalization with overlap
     c_bands:  1 eigenvalues not converged
     ethr =  1.00E-06,  avg # of iterations = 20.0

[...]

     Energy error            =      1.9E-02
     Gradient error          =      2.9E-02

[...]

     energy   old            =   -3598.1590499504 Ry
     energy   new            =   -3598.1777363673 Ry

     CASE: energy  _new < energy  _old

[...]

     iteration #  1     ecut=    40.00 Ry     beta= 0.30
     Davidson diagonalization with overlap
     c_bands:  1 eigenvalues not converged
     ethr =  1.00E-06,  avg # of iterations = 20.0

[...]

     Threshold (ethr) on eigenvalues was too large:
     Diagonalizing with lowered threshold

     Davidson diagonalization with overlap
     ethr =  6.36E-08,  avg # of iterations =  2.0

[...]

     number of scf cycles    =  36
     number of bfgs steps    =  35

     energy   old            =   -3598.3043501030 Ry
     energy   new            =   -3598.3044215849 Ry

     CASE: energy  _new < energy  _old

     new trust radius        =       0.0070324967 bohr
     new conv_thr            =       0.0000000100 Ry

ATOMIC_POSITIONS (angstrom)
Na            1.4574811060        8.2909717580        6.3645088068
Na            1.6018023169        8.1896447753        1.3752222781
Na            3.2159002924        6.5328604388        3.8496641600
Na           -0.0695031094        6.4890209021        8.9885967272
Na            3.1332615245        6.5431969926        9.0455957141
Na            3.2978757076        2.4538345612        6.3592298400
Na            3.3805144755        2.4434980074        1.1632982859
Na            6.5832791094        2.4976740979        1.2202972728
Na            5.0562948940        0.6957232420        3.8443851932
Na            4.9119746831        0.7970502247        8.8336727219
Li            0.0178449581        5.9062042625        3.5554412215
Li            6.4959380419        3.0804907375        6.6534527785
Fe            4.9486130271        5.9382247337        6.5327966581
Fe            4.9447565713        5.9398667837        1.3575915929
Fe            1.5651629729        3.0484702663        3.6760983419
Fe            1.5690204287        3.0468282163        8.8513034071
P             1.5679847792        5.2504467375        6.1535174262
P             1.6217157166        5.2070620547        1.0332697091
P             4.9457912208        3.7362482625        4.0553765738
P             4.8920602834        3.7796329453        9.1756242909
C             4.8418914117        8.3579701375        6.2011088978
C             4.8988997328        8.3627038087        0.9675073852
C             1.6718845883        0.6287248625        4.0077851022
C             1.6148762672        0.6239911913        9.2413866148
O             1.7117192079        8.3495775505        3.9656372183
O             1.5741411229        8.3465656142        9.2794730788
O             4.7895247501        7.7616490178        7.3706323255
O             4.8341094378        7.8227203360        2.1542667232
O             5.0378275377        7.5604286118        5.1897695270
O             5.0173275718        7.5037303835       -0.0092482559
O             0.4378768527        6.1502628820        6.7713993878
O             2.8897578197        6.0648855354        6.1774661714
O             0.4401512010        6.0492119371        1.6635149682
O             2.8818716929        6.1352609780        1.0697167190
O             1.2873809063        4.9225341288        4.6410038719
O             4.8767637430        5.0760641233        3.2571624312
O             1.3732368406        4.8688693943        9.9108074240
O             4.7182481776        5.0833500074        8.3601149585
O             1.6370122570        3.9106298767        6.9517325688
O             5.2263950937        4.0641608712        5.5678901281
O             1.7955278224        3.9033449926        1.8487800415
O             5.1405391594        4.1178246057        0.2980875760
O             3.6240181803        2.9218094646        4.0314278286
O             6.0758991473        2.8364321180        3.4374956122
O             3.6319043071        2.8514340220        9.1391782810
O             6.0736247990        2.9374820629        8.5453790318
O             1.4759484623        1.4262653882        5.0191254730
O             1.4964484282        1.4829646165       10.2181422559
O             1.7242512499        1.2250459822        2.8382616745
O             1.6796675622        1.1639736640        8.0546272768
O             4.8020567921        0.6371164495        6.2432567817
O             4.9396348771        0.6401293858        0.9294209212

     Writing output data file ./tmp_system1/system1.save/
     NEW-OLD atomic charge density approx. for the potential

     Check: negative core charge=   -0.000060

     Self-consistent Calculation

[...]

     Threshold (ethr) on eigenvalues was too large:
     Diagonalizing with lowered threshold

     Davidson diagonalization with overlap
     ethr =  2.37E-08,  avg # of iterations =  4.0

[...]

     total energy              =   -3598.30446533 Ry
     estimated scf accuracy    <       0.00000002 Ry

     iteration #  8     ecut=    40.00 Ry     beta= 0.30
     Davidson diagonalization with overlap
     ethr =  5.78E-12,  avg # of iterations =  4.0

     End of self-consistent calculation

          k = 0.0000 0.0000 0.0000 ( 17781 PWs)   bands (ev):

   -79.9509 -79.9509 -79.8643 -79.8642 -46.0623 -46.0614 -45.9792 -45.9785
   -45.9701 -45.9690 -45.9196 -45.9192 -45.8607 -45.8587 -45.7783 -45.7783
   -45.7523 -45.7513 -45.7378 -45.7377 -45.2422 -45.2422 -45.1136 -45.1136
   -45.0148 -45.0148 -39.0599 -39.0597 -17.9518 -17.9388 -17.8744 -17.8607
   -17.7432 -17.7424 -17.7058 -17.7038 -17.6885 -17.6850 -17.6838 -17.6825
   -17.6085 -17.6042 -17.4896 -17.4859 -17.2151 -17.2005 -17.1872 -17.1845
   -17.1765 -17.1659 -17.0725 -17.0636 -17.0617 -17.0601 -17.0474 -17.0407
   -16.9783 -16.9766 -16.9699 -16.9629 -16.9512 -16.9466 -15.8342 -15.7367
   -15.6797 -15.6593 -14.8614 -14.8437 -14.7154 -14.7038 -14.4842 -14.4820
   -14.3612 -14.3555 -13.5080 -13.4984 -13.4527 -13.4116 -13.3321 -13.3166
   -13.2761 -13.2682 -13.1763 -13.1463 -13.1290 -13.1087  -3.9249  -3.6759
    -3.5490  -3.4371  -3.2950  -3.1894  -3.1256  -3.1202  -2.2159  -2.1767
    -2.0767  -2.0060  -1.9605  -1.9035  -1.8901  -1.7826  -1.7451  -1.7141
    -1.6772  -1.5727  -1.4518  -1.3543  -0.9500  -0.9348  -0.8604  -0.8354
    -0.8243  -0.7015  -0.5455  -0.3635  -0.3539  -0.2184   0.8106   0.8694
     1.0199   1.0513   1.1504   1.2520   1.2991   1.3600   1.3602   1.4277
     1.4464   1.5249   1.5421   1.6417   1.7445   1.7742   1.7788   1.9010
     1.9109   1.9677   1.9881   2.0538   2.1170   2.1424   2.2018   2.3563
     2.3667   2.3887   2.4263   2.4400   2.4780   2.5208   2.5817   2.6908
     2.7154   2.7588   2.9527   3.0208   3.0706   3.0846   3.1217   3.1637
     3.2510   3.3012   3.3461   3.4132   3.5538   3.6094   3.6718   3.7363
     3.8013   3.8102   6.2272   6.2394   6.2738   6.3055   6.3352   6.3831
     6.4032   6.4110   6.4263   6.4670   6.5276   6.5470   7.4863   7.5811
     7.6030   7.6972   7.8320   7.8734   7.9859   8.0198   8.4774   9.4721
     9.7114   9.8301   9.8775  10.2434  10.2750  10.6566  11.2900  11.9526
    12.1558  12.1960  12.2090  12.3204  12.5493  12.5611  12.5798  12.7152
    12.7275  12.9607  13.2162  13.3173  13.3226  13.4186  13.4595  13.6162
    13.6935  13.7471

     the Fermi energy is     7.0355 ev

!    total energy              =   -3598.30446758 Ry
     estimated scf accuracy    <          5.2E-09 Ry
     smearing contrib. (-TS)   =      -0.00229924 Ry
     internal energy E=F+TS    =   -3598.30216834 Ry

     The total energy is F=E-TS. E is the sum of the following terms:
     one-electron contribution =   -2007.17614684 Ry
     hartree contribution      =    1166.08952604 Ry
     xc contribution           =    -537.24772843 Ry
     ewald contribution        =   -1624.53574642 Ry
     one-center paw contrib.   =    -595.43207269 Ry

     convergence has been achieved in   8 iterations

     Forces acting on atoms (cartesian axes, Ry/au):

     atom    1 type  4   force =     0.00000992    0.00053176   -0.00028599
     atom    2 type  4   force =    -0.00068866    0.00040819   -0.00044348
     atom    3 type  4   force =     0.00022710    0.00017226    0.00021462
     atom    4 type  4   force =     0.00008285   -0.00001655    0.00028413
     atom    5 type  4   force =     0.00021890    0.00013379    0.00028860
     atom    6 type  4   force =    -0.00022710   -0.00017226   -0.00021462
     atom    7 type  4   force =    -0.00021890   -0.00013379   -0.00028860
     atom    8 type  4   force =    -0.00008285    0.00001655   -0.00028413
     atom    9 type  4   force =    -0.00000992   -0.00053176    0.00028599
     atom   10 type  4   force =     0.00068866   -0.00040819    0.00044348
     atom   11 type  3   force =     0.00033525   -0.00034238    0.00017553
     atom   12 type  3   force =    -0.00033525    0.00034238   -0.00017553
     atom   13 type  2   force =     0.00084235   -0.00058308    0.00041366
     atom   14 type  2   force =    -0.00019641    0.00039413   -0.00056191
     atom   15 type  2   force =    -0.00084235    0.00058308   -0.00041366
     atom   16 type  2   force =     0.00019641   -0.00039413    0.00056191
     atom   17 type  6   force =     0.00037283   -0.00030259    0.00023054
     atom   18 type  6   force =     0.00014524   -0.00014614   -0.00047627
     atom   19 type  6   force =    -0.00037283    0.00030259   -0.00023054
     atom   20 type  6   force =    -0.00014524    0.00014614    0.00047627
     atom   21 type  1   force =    -0.00000907   -0.00010911    0.00011972
     atom   22 type  1   force =    -0.00001160    0.00004294    0.00036508
     atom   23 type  1   force =     0.00000907    0.00010911   -0.00011972
     atom   24 type  1   force =     0.00001160   -0.00004294   -0.00036508
     atom   25 type  5   force =    -0.00050663    0.00012603    0.00012821
     atom   26 type  5   force =    -0.00015845    0.00006652   -0.00014830
     atom   27 type  5   force =     0.00004508   -0.00013674    0.00026203
     atom   28 type  5   force =     0.00020017    0.00000091    0.00040134
     atom   29 type  5   force =     0.00010344    0.00077436   -0.00041214
     atom   30 type  5   force =    -0.00008706    0.00000080    0.00025453
     atom   31 type  5   force =     0.00006796   -0.00039512   -0.00065605
     atom   32 type  5   force =    -0.00048315    0.00024698    0.00028318
     atom   33 type  5   force =     0.00040313   -0.00025282    0.00003960
     atom   34 type  5   force =     0.00016408    0.00034323    0.00058203
     atom   35 type  5   force =    -0.00094618    0.00022644    0.00040382
     atom   36 type  5   force =    -0.00050808    0.00003633   -0.00035676
     atom   37 type  5   force =    -0.00011236    0.00021514    0.00054104
     atom   38 type  5   force =    -0.00084546   -0.00032786    0.00005375
     atom   39 type  5   force =     0.00050808   -0.00003633    0.00035676
     atom   40 type  5   force =     0.00094618   -0.00022644   -0.00040382
     atom   41 type  5   force =     0.00084546    0.00032786   -0.00005375
     atom   42 type  5   force =     0.00011236   -0.00021514   -0.00054104
     atom   43 type  5   force =     0.00048315   -0.00024698   -0.00028318
     atom   44 type  5   force =    -0.00006796    0.00039512    0.00065605
     atom   45 type  5   force =    -0.00016408   -0.00034323   -0.00058203
     atom   46 type  5   force =    -0.00040313    0.00025282   -0.00003960
     atom   47 type  5   force =    -0.00010344   -0.00077436    0.00041214
     atom   48 type  5   force =     0.00008706   -0.00000080   -0.00025453
     atom   49 type  5   force =    -0.00004508    0.00013674   -0.00026203
     atom   50 type  5   force =    -0.00020017   -0.00000091   -0.00040134
     atom   51 type  5   force =     0.00050663   -0.00012603   -0.00012821
     atom   52 type  5   force =     0.00015845   -0.00006652    0.00014830

     Total force =     0.004496     Total SCF correction =     0.000143

     Computing stress (Cartesian axis) and pressure

          total   stress  (Ry/bohr**3)                   (kbar)     P=      -66.40
  -0.00040490   0.00001743   0.00004139          -59.56        2.56        6.09
   0.00001743  -0.00050964  -0.00004281            2.56      -74.97       -6.30
   0.00004139  -0.00004281  -0.00043951            6.09       -6.30      -64.65

     Energy error            =      4.6E-05
     Gradient error          =      9.5E-04

     bfgs converged in  37 scf cycles and  36 bfgs steps
     (criteria: energy <  1.0E-04 Ry, force <  1.0E-03 Ry/Bohr)

     End of BFGS Geometry Optimization

     Final energy   =   -3598.3044675832 Ry

     File ./tmp_system1/system1.bfgs deleted, as requested
Begin final coordinates

ATOMIC_POSITIONS (angstrom)
Na            1.4574811060        8.2909717580        6.3645088068
Na            1.6018023169        8.1896447753        1.3752222781
Na            3.2159002924        6.5328604388        3.8496641600
Na           -0.0695031094        6.4890209021        8.9885967272
Na            3.1332615245        6.5431969926        9.0455957141
Na            3.2978757076        2.4538345612        6.3592298400
Na            3.3805144755        2.4434980074        1.1632982859
Na            6.5832791094        2.4976740979        1.2202972728
Na            5.0562948940        0.6957232420        3.8443851932
Na            4.9119746831        0.7970502247        8.8336727219
Li            0.0178449581        5.9062042625        3.5554412215
Li            6.4959380419        3.0804907375        6.6534527785
Fe            4.9486130271        5.9382247337        6.5327966581
Fe            4.9447565713        5.9398667837        1.3575915929
Fe            1.5651629729        3.0484702663        3.6760983419
Fe            1.5690204287        3.0468282163        8.8513034071
P             1.5679847792        5.2504467375        6.1535174262
P             1.6217157166        5.2070620547        1.0332697091
P             4.9457912208        3.7362482625        4.0553765738
P             4.8920602834        3.7796329453        9.1756242909
C             4.8418914117        8.3579701375        6.2011088978
C             4.8988997328        8.3627038087        0.9675073852
C             1.6718845883        0.6287248625        4.0077851022
C             1.6148762672        0.6239911913        9.2413866148
O             1.7117192079        8.3495775505        3.9656372183
O             1.5741411229        8.3465656142        9.2794730788
O             4.7895247501        7.7616490178        7.3706323255
O             4.8341094378        7.8227203360        2.1542667232
O             5.0378275377        7.5604286118        5.1897695270
O             5.0173275718        7.5037303835       -0.0092482559
O             0.4378768527        6.1502628820        6.7713993878
O             2.8897578197        6.0648855354        6.1774661714
O             0.4401512010        6.0492119371        1.6635149682
O             2.8818716929        6.1352609780        1.0697167190
O             1.2873809063        4.9225341288        4.6410038719
O             4.8767637430        5.0760641233        3.2571624312
O             1.3732368406        4.8688693943        9.9108074240
O             4.7182481776        5.0833500074        8.3601149585
O             1.6370122570        3.9106298767        6.9517325688
O             5.2263950937        4.0641608712        5.5678901281
O             1.7955278224        3.9033449926        1.8487800415
O             5.1405391594        4.1178246057        0.2980875760
O             3.6240181803        2.9218094646        4.0314278286
O             6.0758991473        2.8364321180        3.4374956122
O             3.6319043071        2.8514340220        9.1391782810
O             6.0736247990        2.9374820629        8.5453790318
O             1.4759484623        1.4262653882        5.0191254730
O             1.4964484282        1.4829646165       10.2181422559
O             1.7242512499        1.2250459822        2.8382616745
O             1.6796675622        1.1639736640        8.0546272768
O             4.8020567921        0.6371164495        6.2432567817
O             4.9396348771        0.6401293858        0.9294209212
End final coordinates

     Writing output data file ./tmp_system1/system1.save/

     General routines

     Parallel routines

   This run was terminated on:  18: 0:28  31Aug2025

   JOB DONE.